NAME : portcgen-25-1
COMMENT : portcgen N=25, seed=1
TYPE : TSP
DIMENSION : 25
EDGE_WEIGHT_TYPE : EUC_2D
NODE_COORD_SECTION
1 -134730 -274902
2 -97652 -114508
3 -43747 36398
4 -15042 -86570
5 -323323 96095
6 -131940 -210722
7 -276030 77863
8 179602 219849
9 225336 -114555
10 -118405 -121914
11 36435 95454
12 -113530 -34057
13 23421 -7173
14 -234888 358171
15 -73799 67790
16 -98554 -1184
17 -34270 12384
18 -183182 193628
19 2159 237205
20 6805 -253410
21 88135 178035
22 12195 82510
23 260533 15473
24 139357 -44452
25 108077 173170
